
Gurobi 9.1.0 (win64) logging started Tue Dec 15 14:48:11 2020

Changed value of parameter LogFile to logs/iteration21
   Prev:   Default: 
Gurobi Optimizer version 9.1.0 build v9.1.0rc0 (win64)
Thread count: 4 physical cores, 8 logical processors, using up to 8 threads
Optimize a model with 136 rows, 1136 columns and 4174 nonzeros
Model fingerprint: 0xf663cb5e
Coefficient statistics:
  Matrix range     [1e+00, 1e+00]
  Objective range  [8e+02, 3e+03]
  Bounds range     [0e+00, 0e+00]
  RHS range        [1e+00, 1e+00]
Presolve removed 4 rows and 106 columns
Presolve time: 0.00s
Presolved: 132 rows, 1030 columns, 4067 nonzeros

Iteration    Objective       Primal Inf.    Dual Inf.      Time
       0    4.4804167e+03   1.320000e+02   0.000000e+00      0s
     578    7.2636667e+04   0.000000e+00   0.000000e+00      0s

Solved in 578 iterations and 0.01 seconds
Optimal objective  7.263666667e+04

Solutionx[72] 1.000000 
x[118] 1.000000 
x[132] 1.000000 
x[261] 0.500000 
x[436] 0.500000 
x[728] 0.500000 
x[810] 0.500000 
x[821] 0.500000 
x[1733] 0.500000 
x[10635] 0.500000 
x[18348] 0.500000 
x[16166] 1.000000 
x[10403] 1.000000 
x[2614] 0.500000 
x[3808] 0.500000 
x[12011] 0.500000 
x[28538] 0.500000 
x[30770] 1.000000 
x[32760] 0.500000 
x[11806] 0.500000 
x[489] 1.000000 
x[6731] 0.500000 
x[7217] 0.500000 
x[20407] 1.000000 
x[2609] 0.500000 
x[13702] 0.500000 
x[15821] 0.500000 
x[22053] 0.500000 
x[25903] 0.500000 
x[28580] 0.500000 
x[9205] 0.500000 
x[29820] 0.500000 
x[21696] 0.500000 
x[14109] 1.000000 
x[17149] 1.000000 
x[33267] 0.500000 
x[31465] 0.500000 
x[31815] 1.000000 
x[19558] 1.000000 
x[21353] 1.000000 
x[14249] 1.000000 
x[25572] 0.500000 
x[15252] 0.500000 
x[18849] 1.000000 
x[11146] 0.500000 
x[9076] 1.000000 
x[7093] 1.000000 
x[14663] 0.500000 
x[12635] 0.500000 
x[188] 1.000000 
x[26385] 0.500000 
x[14992] 1.000000 
x[8791] 0.500000 
x[31533] 0.500000 
x[23317] 1.000000 
x[458] 0.500000 
x[29618] 0.500000 
x[20791] 0.500000 
x[9337] 0.500000 
x[16841] 0.500000 
x[22040] 0.500000 
x[10421] 0.500000 
x[32619] 0.500000 
x[1383] 0.500000 
